Route #1: 1 6 26 49 10 22 56 55 46 1
Route #2: 1 32 19 34 48 27 3 67 44 1
Route #3: 1 14 29 13 59 16 57 64 1
Route #4: 1 18 42 17 28 11 39 30 60 1
Route #5: 1 53 23 54 43 45 41 65 37 7 1
Route #6: 1 47 5 36 50 2 20 21 8 33 1
Route #7: 1 38 66 24 9 25 15 1
Route #8: 1 63 62 4 31 58 61 1
Route #9: 1 40 35 12 51 1
Route #10: 1 52 1
cost 1250.2373967058768
